n_res = 4;
rcap = [18, 17, 91, 78];
rtype = [1, 1, 2, 2];
n_tasks = 30;
modes = [ {1, 2, 3}, {4, 5, 6}, {7, 8, 9}, {10, 11, 12}, {13, 14, 15}, {16, 17, 18}, {19, 20, 21}, {22, 23, 24}, {25, 26, 27}, {28, 29, 30}, {31, 32, 33}, {34, 35, 36}, {37, 38, 39}, {40, 41, 42}, {43, 44, 45}, {46, 47, 48}, {49, 50, 51}, {52, 53, 54}, {55, 56, 57}, {58, 59, 60}, {61, 62, 63}, {64, 65, 66}, {67, 68, 69}, {70, 71, 72}, {73, 74, 75}, {76, 77, 78}, {79, 80, 81}, {82, 83, 84}, {85, 86, 87}, {88, 89, 90} ];
succ = [ {7, 26}, {30}, {4, 6, 11}, {5, 14, 15}, {8, 12}, {17, 18}, {10}, {9, 24, 25}, {13, 17, 18}, {12}, {20, 21, 24}, {16, 19, 20}, {16}, {16, 24, 28}, {29}, {23, 27}, {20, 22, 26}, {22, 26}, {21}, {23}, {22, 23, 25}, {27, 28}, {29}, {30}, {27, 28}, {29}, {30}, {}, {}, {} ];
n_opt = 90;
dur = [1, 8, 10, 5, 9, 10, 2, 5, 7, 8, 10, 10, 1, 7, 7, 6, 7, 8, 2, 7, 8, 2, 5, 8, 2, 5, 10, 8, 8, 10, 4, 5, 6, 1, 6, 9, 2, 5, 10, 1, 1, 9, 5, 5, 7, 3, 7, 10, 2, 8, 9, 1, 7, 8, 7, 10, 10, 3, 6, 10, 1, 7, 8, 6, 10, 10, 4, 9, 9, 2, 4, 9, 3, 6, 9, 3, 3, 5, 2, 7, 10, 6, 7, 9, 3, 7, 10, 2, 3, 5];
rreq = [| 10, 10,  0,  5,  0,  0,  4,  3,  1,  0,  2,  0,  0,  0,  6,  9,  0,  6,  0,  0,  6,  0,  0,  8,  0,  0,  3,  5,  0,  0,  4,  0,  3,  5,  4,  0,  0,  3,  3,  0,  9,  8,  6,  0,  5,  9,  0,  0,  0,  0,  3,  9,  0,  0,  0,  1,  0,  0,  0,  0,  9,  2,  0,  0,  0,  0,  0,  1,  4,  2,  2,  2,  0,  0,  0, 10, 10, 10,  8,  6,  4,  0,  8,  0,  0,  0,  0,  6,  0,  6
        |  0,  0,  5,  0,  8,  7,  0,  0,  0,  2,  0,  1,  7,  3,  0,  0,  6,  0,  7,  3,  0, 10,  8,  0,  7,  6,  0,  0,  5,  4,  0,  5,  0,  0,  0,  8,  4,  0,  0,  9,  0,  0,  0,  7,  0,  0,  6,  5,  4,  3,  0,  0,  9,  3,  9,  0,  8,  5,  4,  3,  0,  0,  5,  4,  2,  1,  5,  0,  0,  0,  0,  0,  8,  4,  4,  0,  0,  0,  0,  0,  0, 10,  0,  3,  2,  2,  2,  0,  5,  0
        |  0, 10,  8,  8,  7,  6,  0,  0,  0,  4,  2,  0,  7,  0,  0,  5,  0,  0,  0,  9,  0,  8,  6,  6,  3,  0,  3,  7,  8,  7,  5,  4,  3,  0,  0,  0,  0,  0,  5,  0,  0,  0,  0,  0,  5,  8,  5,  4,  4,  4,  2,  0,  3,  0,  8,  0,  0,  0,  9,  0,  4,  1,  0,  0,  0,  6,  0,  1,  0,  0,  0,  7,  0,  0,  6,  4,  0,  3,  0,  0,  0,  8,  0,  0,  8,  6,  0,  0,  0,  0
        |  4,  0,  0,  0,  0,  0,  5,  4,  2,  0,  0,  6,  0,  1,  4,  0,  3,  2,  2,  0,  2,  0,  0,  0,  0,  6,  0,  0,  0,  0,  0,  0,  0,  6,  5,  3,  3,  1,  0,  2,  2,  1,  6,  6,  0,  0,  0,  0,  0,  0,  0,  3,  0,  2,  0,  6,  6,  7,  0,  3,  0,  0,  7,  7,  6,  0, 10,  0,  9,  8,  4,  0,  7,  6,  0,  0,  7,  0,  7,  6,  6,  0,  7,  6,  0,  0,  8,  7,  5,  5 |];
